Maximize
  0.6976321179615682 Z_95_0_0 + 0.0862616821659846 Z_95_0_1
   + 0.00801865359507314 Z_95_0_2 + 0.0943425214726933 Z_95_0_3
   + 0.0137450248046807 Z_95_0_4 + 0.000768643 Z_338_0_0
   + 0.000838701 Z_338_0_1 + 0.00352939475860793 Z_338_0_2
   + 0.8237026966415679 Z_338_0_3 + 0.0711605645267911 Z_338_0_4
   + 0.7553894917390154 Z_332_0_0 + 0.0290497896656638 Z_332_0_1
   + 0.0155750397897247 Z_332_0_2 + 0.0765183770362308 Z_332_0_3
   + 0.0234673017693653 Z_332_0_4 + 0.00186408363324744 Z_456_0_0
   + 0.00222529928411322 Z_456_0_1 + 0.00152485096840033 Z_456_0_2
   + 0.8343268061028852 Z_456_0_3 + 0.0600589600113538 Z_456_0_4 + [
   0.4 Z_95_0_0 * Z_332_0_0 + 0.4 Z_95_0_1 * Z_332_0_1
   + 0.4 Z_95_0_2 * Z_332_0_2 + 0.4 Z_95_0_3 * Z_332_0_3
   + 0.4 Z_95_0_4 * Z_332_0_4 + 2.42283e-05 Z_338_0_0 * Z_456_0_0
   + 2.42283e-05 Z_338_0_1 * Z_456_0_1 + 2.42283e-05 Z_338_0_2 * Z_456_0_2
   + 2.42283e-05 Z_338_0_3 * Z_456_0_3 + 2.42283e-05 Z_338_0_4 * Z_456_0_4
   ] / 2 
Subject To
 constraint1_950: Z_95_0_0 + Z_95_0_1 + Z_95_0_2 + Z_95_0_3 + Z_95_0_4
   <= 1
 constraint1_3380: Z_338_0_0 + Z_338_0_1 + Z_338_0_2 + Z_338_0_3
   + Z_338_0_4 <= 1
 constraint1_3320: Z_332_0_0 + Z_332_0_1 + Z_332_0_2 + Z_332_0_3
   + Z_332_0_4 <= 1
 constraint1_4560: Z_456_0_0 + Z_456_0_1 + Z_456_0_2 + Z_456_0_3
   + Z_456_0_4 <= 1
 constraint2_950: Z_95_0_0 <= 1
 constraint2_951: Z_95_0_1 <= 1
 constraint2_952: Z_95_0_2 <= 1
 constraint2_953: Z_95_0_3 <= 1
 constraint2_3380: Z_338_0_0 <= 1
 constraint2_3381: Z_338_0_1 <= 1
 constraint2_3382: Z_338_0_2 <= 1
 constraint2_3383: Z_338_0_3 <= 1
 constraint2_3320: Z_332_0_0 <= 1
 constraint2_3321: Z_332_0_1 <= 1
 constraint2_3322: Z_332_0_2 <= 1
 constraint2_3323: Z_332_0_3 <= 1
 constraint2_4560: Z_456_0_0 <= 1
 constraint2_4561: Z_456_0_1 <= 1
 constraint2_4562: Z_456_0_2 <= 1
 constraint2_4563: Z_456_0_3 <= 1
Bounds
Binaries
 Z_95_0_0 Z_95_0_1 Z_95_0_2 Z_95_0_3 Z_95_0_4 Z_338_0_0 Z_338_0_1 Z_338_0_2
 Z_338_0_3 Z_338_0_4 Z_332_0_0 Z_332_0_1 Z_332_0_2 Z_332_0_3 Z_332_0_4
 Z_456_0_0 Z_456_0_1 Z_456_0_2 Z_456_0_3 Z_456_0_4
End
